c This is an instance of the exact track of PACE 2020 Challenge, see https://pacechallenge.org/2020/ 
c TYPE: biology 
c ORIGIN: www.genome.jp/kegg/ 
c DESCRIPTION: nan 
p tdp 244 290
3 149
3 169
3 11
3 147
3 194
3 2
3 4
3 14
149 147
149 150
233 234
233 232
131 132
131 136
131 130
131 135
131 133
131 134
132 130
76 77
76 75
77 78
214 242
214 218
214 215
242 213
127 128
127 126
144 145
144 11
145 146
119 120
119 118
120 121
155 156
155 219
155 154
156 157
38 39
38 37
39 40
13 17
13 12
17 197
17 18
17 203
17 198
153 154
153 11
153 220
154 204
136 135
216 217
217 218
172 173
172 33
173 174
109 110
109 108
110 111
32 33
32 31
32 19
32 29
32 28
33 80
18 19
19 31
19 64
19 11
19 22
19 30
19 21
19 29
19 20
69 73
69 71
69 192
69 70
69 212
69 211
73 74
73 193
73 192
73 71
80 81
174 175
94 95
94 7
95 96
95 7
81 82
107 108
107 106
108 10
123 124
123 122
124 167
124 162
124 125
124 166
89 90
89 100
89 88
90 92
90 91
157 158
158 159
165 166
165 164
197 198
74 75
50 51
50 49
51 49
42 43
42 41
231 232
231 225
231 230
66 67
66 65
67 68
195 196
195 194
196 194
70 192
70 212
70 103
192 133
126 241
126 117
220 221
118 117
23 25
23 22
23 24
25 22
25 26
27 28
27 26
28 29
28 225
35 36
35 34
36 37
4 5
4 2
5 6
52 54
52 58
52 2
52 53
52 188
52 99
54 55
54 53
54 8
105 106
105 104
82 83
199 202
199 201
199 200
199 198
202 200
202 201
14 15
15 16
212 68
184 185
184 183
138 139
138 137
139 140
83 84
219 93
189 190
189 188
190 188
182 186
182 72
182 183
186 187
200 201
31 29
31 22
31 30
60 62
60 61
62 63
44 222
44 45
222 41
22 30
22 223
22 29
22 21
84 85
85 86
7 8
7 9
205 206
205 209
205 71
206 207
8 55
8 1
147 191
147 146
147 148
30 34
30 12
30 29
160 161
160 159
113 114
113 112
114 129
114 115
11 12
11 64
207 208
12 34
133 134
133 71
225 230
53 56
56 55
56 57
56 104
237 238
237 24
237 236
41 40
20 21
20 213
72 141
72 142
72 71
141 142
58 59
223 224
177 178
177 176
178 179
49 48
167 168
230 229
48 47
59 93
59 61
229 228
122 125
122 121
111 112
65 64
24 235
71 79
40 46
40 137
46 47
162 243
162 163
236 235
142 143
143 244
179 180
170 171
170 97
63 98
163 164
176 175
209 210
228 227
97 96
87 88
87 86
116 117
116 115
2 1
226 227
115 239
100 101
101 102
239 240
150 151
151 152
10 9
180 181
